100
1000
300
299
295
293
292
289
286
285
285
285
284
284
281
278
275
273
271
270
269
265
263
263
262
261
260
257
257
255
251
247
238
237
236
235
233
233
232
232
231
223
221
218
214
211
209
208
207
207
205
204
203
201
198
195
193
192
190
187
182
175
175
175
175
174
174
172
169
168
167
166
159
157
156
152
151
150
148
148
146
145
144
143
142
141
139
136
136
133
132
126
125
122
121
119
118
116
110
106
105
102
